9
0, 785, 509, 868, 763, 792, 369, 1055, 797
785, 0, 403, 131, 581, 169, 491, 277, 209
509, 403, 0, 426, 767, 325, 140, 617, 540
868, 131, 426, 0, 710, 108, 540, 192, 329
763, 581, 767, 710, 0, 735, 739, 789, 389
792, 169, 325, 108, 735, 0, 448, 292, 378
369, 491, 140, 540, 739, 448, 0, 732, 586
1055, 277, 617, 192, 789, 292, 732, 0, 402
797, 209, 540, 329, 389, 378, 586, 402, 0
